<?xml version = "1.0" standalone="yes"?>
<!-- This file has been generated by DOcplex version 2.23.222  -->
<CPLEXSolution version="1.0">
 <header
   problemName="CVRP"
   objectiveValue="12609.2"
  />
 <variables>
  <variable name="x_0_1" index="0" value="1.00000"/>
  <variable name="x_0_3" index="2" value="1.00000"/>
  <variable name="x_0_5" index="4" value="1.00000"/>
  <variable name="x_0_7" index="6" value="1.00000"/>
  <variable name="x_0_8" index="7" value="1.00000"/>
  <variable name="x_0_11" index="10" value="1.00000"/>
  <variable name="x_0_12" index="11" value="1.00000"/>
  <variable name="x_0_13" index="12" value="1.00000"/>
  <variable name="x_0_15" index="14" value="1.00000"/>
  <variable name="x_0_16" index="15" value="1.00000"/>
  <variable name="x_0_17" index="16" value="1.00000"/>
  <variable name="x_0_19" index="18" value="1.00000"/>
  <variable name="x_0_20" index="19" value="1.00000"/>
  <variable name="x_0_21" index="20" value="1.00000"/>
  <variable name="x_1_0" index="21" value="1.00000"/>
  <variable name="x_2_0" index="42" value="1.00000"/>
  <variable name="x_3_4" index="66" value="1.00000"/>
  <variable name="x_4_0" index="84" value="1.00000"/>
  <variable name="x_5_2" index="107" value="1.00000"/>
  <variable name="x_6_0" index="126" value="1.00000"/>
  <variable name="x_7_0" index="147" value="1.00000"/>
  <variable name="x_8_14" index="181" value="1.00000"/>
  <variable name="x_9_0" index="189" value="1.00000"/>
  <variable name="x_10_0" index="210" value="1.00000"/>
  <variable name="x_11_0" index="231" value="1.00000"/>
  <variable name="x_12_0" index="252" value="1.00000"/>
  <variable name="x_13_18" index="290" value="1.00000"/>
  <variable name="x_14_0" index="294" value="1.00000"/>
  <variable name="x_15_10" index="325" value="1.00000"/>
  <variable name="x_16_9" index="345" value="1.00000"/>
  <variable name="x_17_0" index="357" value="1.00000"/>
  <variable name="x_18_0" index="378" value="1.00000"/>
  <variable name="x_19_0" index="399" value="1.00000"/>
  <variable name="x_20_0" index="420" value="1.00000"/>
  <variable name="x_21_6" index="447" value="1.00000"/>
  <variable name="u_1" index="462" value="33.00000"/>
  <variable name="u_2" index="463" value="28.00000"/>
  <variable name="u_3" index="464" value="6.00000"/>
  <variable name="u_4" index="465" value="30.00000"/>
  <variable name="u_5" index="466" value="12.00000"/>
  <variable name="u_6" index="467" value="34.00000"/>
  <variable name="u_7" index="468" value="34.00000"/>
  <variable name="u_8" index="469" value="13.00000"/>
  <variable name="u_9" index="470" value="32.00000"/>
  <variable name="u_10" index="471" value="32.00000"/>
  <variable name="u_11" index="472" value="34.00000"/>
  <variable name="u_12" index="473" value="25.00000"/>
  <variable name="u_13" index="474" value="30.00000"/>
  <variable name="u_14" index="475" value="31.00000"/>
  <variable name="u_15" index="476" value="7.00000"/>
  <variable name="u_16" index="477" value="20.00000"/>
  <variable name="u_17" index="478" value="34.00000"/>
  <variable name="u_18" index="479" value="32.00000"/>
  <variable name="u_19" index="480" value="26.00000"/>
  <variable name="u_20" index="481" value="32.00000"/>
  <variable name="u_21" index="482" value="11.00000"/>
 </variables>
</CPLEXSolution>
